NAME: CMT12_2
TYPE: CVRP
COMMENT: 819.56 - Cluster Nr.2
DIMENSION: 10
CAPACITY: 200
EDGE_WEIGHT_TYPE: EUC_2D
NODE_COORD_TYPE: TWOD_COORDS
NODE_COORD_SECTION: 
4 40 50
7 0 40
6 2 40
9 8 40
2 5 45
8 5 35
1 10 40
10 0 45
3 8 45
5 10 35
DEPOT_SECTION: 
4
-1
DEMAND_SECTION: 
5 20
9 40
6 20
3 20
2 10
8 10
10 20
7 30
4 0
1 30
EOF
